p tw 130 300
0 1
0 2
0 17
0 18
0 24
0 25
0 28
0 49
0 32
0 56
0 62
0 100
0 86
0 104
0 16
0 112
0 65
0 120
0 106
0 121
1 2
1 19
1 45
2 36
2 101
3 4
3 5
3 14
3 21
4 5
4 15
4 16
4 32
4 33
4 26
4 48
4 17
4 73
4 43
4 88
4 78
4 100
4 70
4 110
4 10
4 38
4 108
4 114
4 49
4 67
4 8
4 122
4 41
4 80
4 77
4 117
5 7
5 116
6 7
6 8
6 19
6 85
7 8
7 22
7 23
7 26
7 27
7 28
7 29
7 30
7 31
7 9
7 51
7 116
7 75
7 123
8 122
9 10
9 11
9 51
10 11
10 38
11 40
11 41
11 12
11 46
11 59
11 60
11 61
11 62
11 95
11 96
11 99
11 106
11 103
11 111
11 117
11 118
11 69
11 97
11 116
11 126
12 13
12 14
12 46
13 14
13 19
13 20
14 21
14 44
14 45
14 52
14 53
14 88
14 90
14 92
14 93
14 34
14 99
14 40
14 109
14 60
14 113
14 114
14 119
15 16
16 112
17 18
17 73
18 42
18 74
19 20
19 45
19 78
19 79
19 107
19 108
19 105
19 124
19 59
19 120
19 85
19 111
19 129
21 54
21 87
22 23
22 54
22 112
23 39
23 115
24 25
24 42
24 43
26 27
26 48
27 42
27 52
28 29
28 49
29 42
29 102
30 31
31 36
31 97
32 33
32 56
33 42
33 63
34 35
34 36
34 99
35 36
36 47
36 48
36 67
36 68
36 76
36 77
36 58
36 80
36 79
36 91
36 97
36 101
36 94
36 105
37 38
37 39
38 39
39 64
39 65
39 44
39 66
39 55
39 89
39 71
39 76
39 46
39 83
39 115
39 90
39 127
39 124
39 128
40 41
40 109
41 80
42 43
42 50
42 51
42 63
42 69
42 70
42 71
42 72
42 74
42 81
42 82
42 85
42 86
42 52
42 102
42 98
42 103
42 121
42 125
43 88
44 45
44 66
46 83
47 48
49 67
50 51
52 53
54 55
54 56
54 57
54 58
54 74
54 75
54 83
54 84
54 87
54 94
54 95
54 93
54 98
54 82
54 119
54 112
55 56
55 89
57 58
58 80
59 60
59 120
60 113
61 62
62 100
64 65
65 120
67 68
69 70
69 97
70 110
71 72
71 76
74 75
75 123
76 77
77 117
78 79
78 100
79 91
81 82
82 119
83 84
85 86
86 104
88 90
90 127
92 93
93 98
94 95
94 105
95 96
98 103
99 106
103 111
105 124
106 121
107 108
108 114
111 129
114 119
116 126
117 118
121 125
124 128
